500
1000
379
378
378
378
375
375
373
373
373
372
372
372
371
371
370
369
369
369
369
368
368
366
365
365
365
364
364
363
363
362
361
361
361
358
358
356
354
354
354
354
353
353
351
350
349
349
349
349
349
346
346
346
346
346
346
346
345
345
342
342
342
341
340
337
337
337
337
336
336
335
333
331
328
327
327
327
326
325
325
323
321
321
321
320
319
318
318
317
317
316
316
315
315
314
314
313
312
312
312
310
309
309
307
306
305
305
304
303
301
300
300
299
299
298
298
297
297
296
296
296
295
295
295
295
294
294
293
292
292
292
291
291
291
289
289
288
285
284
284
284
282
281
281
280
279
279
279
278
278
274
274
273
272
272
272
271
271
270
269
269
269
268
267
267
266
265
264
264
263
262
260
260
258
258
257
257
256
256
256
255
254
254
253
253
252
252
252
252
251
250
248
247
247
246
246
246
242
242
242
241
240
240
240
239
236
236
236
234
234
233
232
231
231
230
225
224
223
223
222
220
219
219
218
217
217
215
215
215
215
214
214
214
211
211
210
210
210
210
209
207
205
204
204
203
202
201
200
200
199
199
199
198
198
197
195
195
195
194
192
191
190
190
189
188
188
187
186
186
184
183
182
182
182
181
181
181
180
180
180
178
178
178
177
177
176
175
174
174
174
174
174
173
173
172
171
171
169
169
169
169
167
167
165
165
164
164
164
163
163
162
162
162
159
157
157
155
155
154
153
153
152
151
151
151
150
148
147
147
147
145
144
142
142
142
141
140
138
136
136
135
135
135
134
133
133
133
132
131
131
130
129
128
128
125
125
125
124
123
123
121
120
120
119
118
118
117
117
116
116
115
113
113
113
113
113
112
112
112
110
110
109
108
108
107
107
107
107
107
106
105
104
104
101
101
100
100
100
100
99
98
97
96
96
96
96
95
95
94
94
94
93
93
92
91
91
88
88
87
86
86
84
83
82
82
81
79
78
78
78
77
74
74
74
73
73
72
71
71
71
71
71
71
68
68
67
67
67
65
63
63
61
60
59
58
56
56
55
54
54
53
52
51
50
49
49
48
48
48
47
47
46
46
45
41
40
39
38
38
38
37
35
35
35
34
34
33
33
31
29
29
28
28
28
27
24
24
23
22
22
22
